! BLYP def2-TZVP def2/J D3BJ SP CPCM(Water) PAL6
%maxcore 4000
%cpcm
  SMD true
  SMDsolvent "water"
  end
* xyz 0 1
  C       4.539561       0.923394       0.106168
  C       3.741968      -0.012622       0.766851
  N       2.526695      -0.053813       0.165785
  N       3.798664       1.444599      -0.895798
  N       2.600228       0.835221      -0.826847
  H       5.558221       1.240765       0.283070
  H       3.971212      -0.640166       1.617353
  H       2.569252       1.402955      -1.481882
*
