! BLYP def2-TZVP def2/J D3BJ SP CPCM(Water) PAL6
%maxcore 4000
%cpcm
  SMD true
  SMDsolvent "water"
  end
* xyz 0 1
  C       4.541702       0.936298       0.131690
  C       3.754264      -0.015059       0.758649
  N       2.529457      -0.042831       0.150415
  N       3.754256       1.452939      -0.842994
  N       2.536839       0.856417      -0.826289
  H       5.556326       1.271522       0.296286
  H       3.992398      -0.664052       1.590377
  H       3.605808       1.992550      -1.495534
*
