! BLYP def2-TZVP def2/J D3BJ SP CPCM(Water) PAL6
%maxcore 4000
%cpcm
  SMD true
  SMDsolvent "water"
  end
* xyz 0 1
  C       4.538847       0.919093       0.097660
  C       3.737869      -0.011810       0.769585
  N       2.525774      -0.057473       0.170908
  N       3.813467       1.441820      -0.913399
  N       2.621358       0.828156      -0.827033
  H       5.558853       1.230512       0.278665
  H       3.964150      -0.632204       1.626345
  H       2.223733       1.206424      -1.477331
*
