! BLYP def2-TZVP def2/J D3BJ SP CPCM(Water) PAL6
%maxcore 4000
%cpcm
  SMD true
  SMDsolvent "water"
  end
* xyz 0 1
  C       4.540274       0.927696       0.114675
  C       3.746067      -0.013434       0.764117
  N       2.527616      -0.050152       0.160662
  N       3.783861       1.447379      -0.878196
  N       2.579098       0.842286      -0.826661
  H       5.557589       1.251017       0.287475
  H       3.978274      -0.648128       1.608361
  H       2.914770       1.599487      -1.486433
*
