! BLYP def2-TZVP def2/J D3BJ SP CPCM(Water) PAL6
%maxcore 4000
%cpcm
  SMD true
  SMDsolvent "water"
  end
* xyz 0 1
  C       4.540988       0.931997       0.123183
  C       3.750165      -0.014247       0.761383
  N       2.528536      -0.046491       0.155538
  N       3.769059       1.450159      -0.860595
  N       2.557969       0.849352      -0.826475
  H       5.556958       1.261269       0.291881
  H       3.985336      -0.656090       1.599369
  H       3.260289       1.796018      -1.490983
*
