! OptTS NumFreq BLYP def2-TZVP def2/J D3BJ CPCM(Water) PAL6
%pal
   nprocs 6
end
%maxcore 4000
%geom
   Calc_Hess true
   MaxIter 300
   Convergence Tight
end

%freq
   Temp 298.15
end

* xyz 0 1
  C   4.53813363075601    0.91479155867232    0.08915265508337
  C   3.73377016270163   -0.01099775801347    0.77231915306335
  N   2.52485359510668   -0.06113389920933    0.17603071870371
  N   3.82826920116102    1.43903984973353   -0.93100044747479
  N   2.64248802827331    0.82109066616484   -0.82721852539484
  H   5.55948405939535    1.22025996719544    0.27425968561973
  H   3.95708742892825   -0.62424255750781    1.63533723655042
  H   3.23537861471717    1.13006525794919   -0.87910948643482
*
